# Objective value = 2.9546703630801215e+02
x[0] 1
x[1] 1
x[2] 0
x[3] 1
x[4] 0
x[5] 0
x[6] 1
x[7] 0
x[8] 0
x[9] 0
x[10] 1
x[11] 1
x[12] 0
x[13] 0
x[14] 1
x[15] 0
x[16] 0
x[17] 0
x[18] 1
x[19] 1
x[20] 0
x[21] 1
x[22] 0
x[23] 0
x[24] 0
x[25] 1
x[26] 0
x[27] 0
x[28] 1
x[29] 0
x[30] 1
x[31] 1
x[32] 1
x[33] 1
x[34] 0
x[35] 0
x[36] 1
x[37] 1
x[38] 1
x[39] 1
x[40] 0
x[41] 1
x[42] 1
x[43] 0
x[44] 1
x[45] 1
x[46] 1
x[47] 1
x[48] 0
x[49] 1
x[50] 0
x[51] 0
x[52] 1
x[53] 1
x[54] 0
x[55] 0
x[56] 1
x[57] 0
x[58] 1
x[59] 0
x[60] 0
x[61] 0
x[62] 0
x[63] 1
x[64] 0
x[65] 0
x[66] 0
x[67] 0
x[68] 1
x[69] 1
x[70] 0
x[71] 0
x[72] 0
x[73] 1
x[74] 0
x[75] 0
x[76] 1
x[77] 0
x[78] 1
x[79] 0
x[80] 0
x[81] 0
x[82] 1
x[83] 1
x[84] 1
x[85] 0
x[86] 1
x[87] 1
x[88] 1
x[89] 0
x[90] 0
x[91] 0
x[92] 0
x[93] 0
x[94] 1
x[95] 1
x[96] 0
x[97] 0
x[98] 1
x[99] 1
x[100] 0
x[101] 1
x[102] 1
x[103] 1
x[104] 0
x[105] 1
x[106] 1
x[107] 1
x[108] 1
x[109] 1
x[110] 1
x[111] 1
x[112] 0
x[113] 0
x[114] 1
x[115] 0
x[116] 1
x[117] 1
x[118] 1
x[119] 1
x[120] 1
x[121] 0
x[122] 1
x[123] 1
x[124] 0
x[125] 0
x[126] 1
x[127] 0
x[128] 0
x[129] 0
x[130] 0
x[131] 1
x[132] 0
x[133] 1
x[134] 1
x[135] 1
x[136] 1
x[137] 1
x[138] 0
x[139] 1
x[140] 0
x[141] 0
x[142] 1
x[143] 0
x[144] 1
x[145] 0
x[146] 0
x[147] 0
x[148] 1
x[149] 0
x[150] 1
x[151] 1
x[152] 1
x[153] 1
x[154] 1
x[155] 1
x[156] 0
x[157] 1
x[158] 1
x[159] 1
x[160] 0
x[161] 1
x[162] 0
x[163] 0
x[164] 1
x[165] 1
x[166] 1
x[167] 1
x[168] 1
x[169] 0
x[170] 0
x[171] 0
x[172] 1
x[173] 1
x[174] 0
x[175] 1
x[176] 0
x[177] 1
x[178] 0
x[179] 0
x[180] 1
x[181] 1
x[182] 0
x[183] 1
x[184] 1
x[185] 0
x[186] 0
x[187] 1
x[188] 0
x[189] 0
x[190] 0
x[191] 0
x[192] 1
x[193] 0
x[194] 1
x[195] 1
x[196] 0
x[197] 0
x[198] 1
x[199] 0
x[200] 0
x[201] 1
x[202] 0
x[203] 0
x[204] 1
x[205] 0
x[206] 1
x[207] 1
x[208] 0
x[209] 0
x[210] 1
x[211] 1
x[212] 1
x[213] 0
x[214] 1
x[215] 0
x[216] 0
x[217] 1
x[218] 1
x[219] 0
x[220] 0
x[221] 0
x[222] 1
x[223] 1
x[224] 1
x[225] 0
x[226] 1
x[227] 1
x[228] 1
x[229] 1
x[230] 0
x[231] 1
x[232] 1
x[233] 0
x[234] 0
x[235] 1
x[236] 0
x[237] 1
x[238] 1
x[239] 0
x[240] 1
x[241] 0
x[242] 0
x[243] 0
x[244] 0
x[245] 1
x[246] 0
x[247] 1
x[248] 1
x[249] 1
x[250] 0
x[251] 0
x[252] 0
x[253] 1
x[254] 1
x[255] 1
x[256] 1
x[257] 0
x[258] 0
x[259] 0
x[260] 1
x[261] 1
x[262] 1
x[263] 1
x[264] 0
x[265] 0
x[266] 0
x[267] 0
x[268] 1
x[269] 0
x[270] 1
x[271] 1
x[272] 1
x[273] 0
x[274] 1
x[275] 1
x[276] 0
x[277] 1
x[278] 1
x[279] 1
x[280] 0
x[281] 0
x[282] 1
x[283] 0
x[284] 0
x[285] 1
x[286] 1
x[287] 1
x[288] 0
x[289] 1
x[290] 1
x[291] 1
x[292] 1
x[293] 0
x[294] 0
x[295] 0
x[296] 1
x[297] 1
x[298] 0
x[299] 0
x[300] 1
x[301] 1
x[302] 1
x[303] 0
x[304] 0
x[305] 1
x[306] 0
x[307] 0
x[308] 1
x[309] 1
x[310] 0
x[311] 1
x[312] 0
x[313] 1
x[314] 0
x[315] 1
x[316] 1
x[317] 1
x[318] 0
x[319] 0
x[320] 0
x[321] 0
x[322] 1
x[323] 1
x[324] 0
x[325] 0
x[326] 0
x[327] 0
x[328] 0
x[329] 0
x[330] 0
x[331] 0
x[332] 0
x[333] 0
x[334] 0
x[335] 0
x[336] 0
x[337] 1
x[338] 0
x[339] 0
x[340] 1
x[341] 1
x[342] 1
x[343] 0
x[344] 1
x[345] 0
x[346] 1
x[347] 0
x[348] 1
x[349] 0
x[350] 0
x[351] 1
x[352] 0
x[353] 1
x[354] 0
x[355] 0
x[356] 1
x[357] 0
x[358] 0
x[359] 1
x[360] 0
x[361] 0
x[362] 1
x[363] 0
x[364] 1
x[365] 1
x[366] 1
x[367] 1
x[368] 1
x[369] 1
x[370] 1
x[371] 0
x[372] 0
x[373] 1
x[374] 0
x[375] 1
x[376] 1
x[377] 1
x[378] 1
x[379] 1
x[380] 1
x[381] 1
x[382] 1
x[383] 1
x[384] 1
x[385] 0
x[386] 1
x[387] 1
x[388] 0
x[389] 1
x[390] 0
x[391] 0
x[392] 0
x[393] 1
x[394] 0
x[395] 0
x[396] 0
x[397] 0
x[398] 1
x[399] 0
x[400] 1
x[401] 1
x[402] 0
x[403] 1
x[404] 1
x[405] 0
x[406] 1
x[407] 0
x[408] 0
x[409] 1
x[410] 1
x[411] 0
x[412] 0
x[413] 1
x[414] 0
x[415] 0
x[416] 0
x[417] 0
x[418] 1
x[419] 0
x[420] 0
x[421] 1
x[422] 0
x[423] 1
x[424] 1
x[425] 1
x[426] 1
x[427] 1
x[428] 0
x[429] 1
x[430] 1
x[431] 1
x[432] 0
x[433] 1
x[434] 0
x[435] 0
x[436] 0
x[437] 1
x[438] 0
x[439] 0
x[440] 1
x[441] 1
x[442] 0
x[443] 1
x[444] 0
x[445] 0
x[446] 0
x[447] 0
x[448] 0
x[449] 1
x[450] 1
x[451] 0
x[452] 0
x[453] 0
x[454] 1
x[455] 0
x[456] 0
x[457] 0
x[458] 0
x[459] 1
x[460] 0
x[461] 0
x[462] 0
x[463] 1
x[464] 0
x[465] 0
x[466] 1
x[467] 1
x[468] 1
x[469] 7.9637357064272644e-07
x[470] 0
x[471] 0
x[472] 1
x[473] 0
x[474] 1
x[475] 1
x[476] 0
x[477] 1
x[478] 0
x[479] 0
x[480] 1
x[481] 1
x[482] 1
x[483] 1
x[484] 1
x[485] 1
x[486] 1
x[487] 0
x[488] 0
x[489] 1
x[490] 0
x[491] 0
x[492] 0
x[493] 0
x[494] 1
x[495] 1
x[496] 0
x[497] 0
x[498] 1
x[499] 1
x[500] 0
x[501] 0
x[502] 0
x[503] 0
x[504] 1
x[505] 0
x[506] 1
x[507] 1
x[508] 1
x[509] 0
x[510] 0
x[511] 1
x[512] 0
x[513] 0
x[514] 1
x[515] 0
x[516] 1
x[517] 1
x[518] 1
x[519] 1
x[520] 0
x[521] 0
x[522] 1
x[523] 0
x[524] 0
x[525] 0
x[526] 0
x[527] 1
x[528] 0
x[529] 1
x[530] 0
x[531] 0
x[532] 1
x[533] 0
x[534] 0
x[535] 1
x[536] 1
x[537] 0
x[538] 0
x[539] 0
x[540] 1
x[541] 0
x[542] 0
x[543] 1
x[544] 1
x[545] 0
x[546] 1
x[547] 1
x[548] 0
x[549] 0
x[550] 0
x[551] 1
x[552] 0
x[553] 1
x[554] 1
x[555] 1
x[556] 0
x[557] 1
x[558] 1
x[559] 0
x[560] 1
x[561] 0
x[562] 0
x[563] 0
x[564] 1
x[565] 0
x[566] 0
x[567] 1
x[568] 1
x[569] 0
x[570] 0
x[571] 0
x[572] 1
x[573] 1
x[574] 1
x[575] 1
x[576] 0
x[577] 1
x[578] 1
x[579] 1
x[580] 0
x[581] 1
x[582] 1
x[583] 1
x[584] 0
x[585] 1
x[586] 0
x[587] 0
x[588] 1
x[589] 1
x[590] 1
x[591] 1
x[592] 1
x[593] 1
x[594] 0
x[595] 1
x[596] 1
x[597] 1
x[598] 1
x[599] 1
x[600] 1
x[601] 1
x[602] 0
x[603] 1
x[604] 0
x[605] 0
x[606] 1
x[607] 0
x[608] 0
x[609] 1
x[610] 0
x[611] 0
x[612] 0
x[613] 0
x[614] 0
x[615] 0
x[616] 1
x[617] 1
x[618] 0
x[619] 1
x[620] 1
x[621] 0
x[622] 1
x[623] 1
x[624] 1
x[625] 1
x[626] 1
x[627] 0
x[628] 0
x[629] 0
x[630] 1
x[631] 0
x[632] 0
x[633] 1
x[634] 1
x[635] 1
x[636] 1
x[637] 1
x[638] 1
x[639] 0
x[640] 0
x[641] 0
x[642] 1
x[643] 1
x[644] 0
x[645] 1
x[646] 0
x[647] 1
x[648] 0
x[649] 1
x[650] 1
x[651] 1
x[652] 1
x[653] 1
x[654] 0
x[655] 1
x[656] 1
x[657] 1
x[658] 0
x[659] 1
x[660] 0
x[661] 1
x[662] 1
x[663] 1
x[664] 0
x[665] 1
x[666] 1
x[667] 0
x[668] 1
x[669] 0
x[670] 1
x[671] 0
x[672] 0
x[673] 1
x[674] 1
x[675] 0
x[676] 0
x[677] 1
x[678] 1
x[679] 1
x[680] 0
x[681] 1
x[682] 0
x[683] 1
x[684] 1
x[685] 1
x[686] 0
x[687] 0
x[688] 1
x[689] 1
x[690] 0
x[691] 0
x[692] 0
x[693] 1
x[694] 1
x[695] 0
x[696] 1
x[697] 0
x[698] 0
x[699] 1
x[700] 0
x[701] 0
x[702] 0
x[703] 0
x[704] 0
x[705] 0
x[706] 1
x[707] 1
x[708] 1
x[709] 1
x[710] 1
x[711] 1
x[712] 0
x[713] 1
x[714] 0
x[715] 0
x[716] 0
x[717] 0
x[718] 0
x[719] 1
x[720] 1
x[721] 0
x[722] 0
x[723] 0
x[724] 1
x[725] 0
x[726] 0
x[727] 0
x[728] 0
x[729] 1
x[730] 0
x[731] 0
x[732] 0
x[733] 1
x[734] 0
x[735] 1
x[736] 1
x[737] 0
x[738] 1
x[739] 1
x[740] 1
x[741] 1
x[742] 0
x[743] 1
x[744] 0
x[745] 1
x[746] 0
x[747] 0
x[748] 0
x[749] 0
x[750] 0
x[751] 1
x[752] 0
x[753] 0
x[754] 0
x[755] 0
x[756] 1
x[757] 1
x[758] 0
x[759] 0
x[760] 0
x[761] 0
x[762] 1
x[763] 0
x[764] 0
x[765] 1
x[766] 1
x[767] 1
x[768] 0
x[769] 1
x[770] 0
x[771] 1
x[772] 1
x[773] 1
x[774] 0
x[775] 0
x[776] 0
x[777] 0
x[778] 0
x[779] 0
x[780] 1
x[781] 0
x[782] 0
x[783] 0
x[784] 0
x[785] 0
x[786] 0
x[787] 0
x[788] 1
x[789] 1
x[790] 1
x[791] 1
x[792] 0
x[793] 0
x[794] 1
x[795] 0
x[796] 1
x[797] 0
x[798] 0
x[799] 1
x[800] 0
x[801] 1
x[802] 0
x[803] 0
x[804] 1
x[805] 1
x[806] 1
x[807] 0
x[808] 0
x[809] 0
x[810] 0
x[811] 0
x[812] 0
x[813] 0
x[814] 0
x[815] 0
x[816] 1
x[817] 0
x[818] 1
x[819] 0
x[820] 0
x[821] 0
x[822] 1
x[823] 0
x[824] 0
x[825] 1
x[826] 0
x[827] 0
x[828] 1
x[829] 1
x[830] 1
x[831] 0
x[832] 0
x[833] 1
x[834] 0
x[835] 0
x[836] 0
x[837] 0
x[838] 1
x[839] 0
x[840] 1
x[841] 1
x[842] 0
x[843] 0
x[844] 1
x[845] 0
x[846] 0
x[847] 0
x[848] 0
x[849] 0
x[850] 0
x[851] 1
x[852] 0
x[853] 1
x[854] 0
x[855] 0
x[856] 0
x[857] 0
x[858] 1
x[859] 1
x[860] 0
x[861] 0
x[862] 1
x[863] 1
x[864] 0
x[865] 0
x[866] 1
x[867] 1
x[868] 0
x[869] 0
x[870] 0
x[871] 1
x[872] 0
x[873] 0
x[874] 1
x[875] 0
x[876] 0
x[877] 1
x[878] 1
x[879] 1
x[880] 1
x[881] 0
x[882] 1
x[883] 1
x[884] 0
x[885] 1
x[886] 1
x[887] 0
x[888] 1
x[889] 0
x[890] 1
x[891] 1
x[892] 1
x[893] 0
x[894] 1
x[895] 0
x[896] 0
x[897] 1
x[898] 1
x[899] 1
x[900] 1
x[901] 0
x[902] 1
x[903] 1
x[904] 1
x[905] 0
x[906] 1
x[907] 1
x[908] 0
x[909] 0
x[910] 0
x[911] 0
x[912] 0
x[913] 0
x[914] 0
x[915] 0
x[916] 1
x[917] 1
x[918] 0
x[919] 0
x[920] 0
x[921] 0
x[922] 0
x[923] 0
x[924] 1
x[925] 0
x[926] 1
x[927] 1
x[928] 0
x[929] 0
x[930] 0
x[931] 0
x[932] 1
x[933] 0
x[934] 0
x[935] 0
x[936] 0
x[937] 1
x[938] 0
x[939] 0
x[940] 0
x[941] 0
x[942] 1
x[943] 0
x[944] 0
x[945] 0
x[946] 1
x[947] 0
x[948] 0
x[949] 0
x[950] 0
x[951] 1
x[952] 1
x[953] 1
x[954] 0
x[955] 1
x[956] 0
x[957] 0
x[958] 1
x[959] 0
x[960] 1
x[961] 1
x[962] 1
x[963] 0
x[964] 0
x[965] 1
x[966] 1
x[967] 0
x[968] 0
x[969] 0
x[970] 1
x[971] 0
x[972] 1
x[973] 0
x[974] 1
x[975] 0
x[976] 0
x[977] 0
x[978] 0
x[979] 0
x[980] 0
x[981] 1
x[982] 0
x[983] 0
x[984] 0
x[985] 1
x[986] 1
x[987] 1
x[988] 0
x[989] 1
x[990] 1
x[991] 1
x[992] 1
x[993] 0
x[994] 0
x[995] 0
x[996] 0
x[997] 0
x[998] 1
x[999] 1
